data;
set V := 
0
1
2
3
4
5
6
7
8
9
;
set E := 
0 1
1 0
0 2
2 0
0 5
5 0
0 9
9 0
1 8
8 1
1 4
4 1
1 7
7 1
2 8
8 2
2 5
5 2
2 6
6 2
2 9
9 2
3 6
6 3
4 5
5 4
4 9
9 4
5 8
8 5
5 7
7 5
8 9
9 8
;
param l := 
0 1 7
1 0 7
0 2 8
2 0 8
0 5 8
5 0 8
0 9 9
9 0 9
1 8 2
8 1 2
1 4 1
4 1 1
1 7 0
7 1 0
2 8 9
8 2 9
2 5 4
5 2 4
2 6 10
6 2 10
2 9 7
9 2 7
3 6 9
6 3 9
4 5 5
5 4 5
4 9 4
9 4 4
5 8 6
8 5 6
5 7 6
7 5 6
8 9 7
9 8 7
;
